n = 20;
lu = [|149, 325
      |213, 324
      |-192, 109
      |298, 324
      |-265, 58
      |-71, 396
      |-318, -145
      |-41, 360
      |-233, -147
      |-132, 327
      |-58, 102
      |-6, 245
      |-335, 59
      |-372, -325
      |-248, 155
      |-173, 152
      |-306, -270
      |-382, 165
      |-225, 288
      |-390, -210|];
